p cnf 36 95
e 34 35 0
a 32 33 0
e 1 2 3 4 5 6 7 8 9 10 11 12 13 14 15 16 17 18 19 20 21 22 23 24 25 26 27 28 29 30 31 36 0
-32 -33 1 0
32 -1 0
33 -1 0
-35 -1 2 0
35 -2 0
1 -2 0
35 -32 3 0
32 -3 0
-35 -3 0
2 3 4 0
-2 -4 0
-3 -4 0
34 -1 5 0
-34 -5 0
1 -5 0
-32 -4 6 0
32 -6 0
4 -6 0
32 4 7 0
-32 -7 0
-4 -7 0
6 7 8 0
-6 -8 0
-7 -8 0
-5 6 9 0
5 -9 0
-6 -9 0
5 -6 10 0
-5 -10 0
6 -10 0
9 10 11 0
-9 -11 0
-10 -11 0
-1 -11 12 0
1 -12 0
11 -12 0
1 11 13 0
-1 -13 0
-11 -13 0
12 13 14 0
-12 -14 0
-13 -14 0
-1 5 15 0
1 -15 0
-5 -15 0
1 -5 16 0
-1 -16 0
5 -16 0
-6 16 17 0
6 -17 0
-16 -17 0
6 -15 18 0
-6 -18 0
15 -18 0
17 18 19 0
-17 -19 0
-18 -19 0
8 -14 20 0
-8 -20 0
14 -20 0
-8 14 21 0
8 -21 0
-14 -21 0
20 21 22 0
-20 -22 0
-21 -22 0
8 -19 23 0
-8 -23 0
19 -23 0
8 19 24 0
-8 -24 0
-19 -24 0
23 24 25 0
-23 -25 0
-24 -25 0
14 -19 26 0
-14 -26 0
19 -26 0
19 22 27 0
-19 -27 0
-22 -27 0
26 27 28 0
-26 -28 0
-27 -28 0
-25 -28 29 0
25 -29 0
28 -29 0
-34 -35 30 0
34 -30 0
35 -30 0
-29 -30 31 0
29 -31 0
30 -31 0
36 0
31 0
